nNurses = 131;
nHours = 26;
minHours = 4;
maxHours = 10;
maxConsec = 8;
maxPresence = 12;
demand = [6, 8, 6, 11, 7, 10, 13, 14, 16, 21, 22, 25, 20, 19, 21, 20, 25, 29, 31, 31, 27, 30, 26, 23, 20, 24];
